1659, 0, 0, 90, 0
1660, 0, 1, 79, 1
1661, 0, 2, 99, 3
1662, 0, 3, 30, 2
1663, 1, 0, 79, 2
1664, 1, 1, 34, 1
1665, 1, 2, 49, 3
1666, 1, 3, 32, 0
1667, 2, 0, 92, 0
1668, 2, 1, 58, 1
1669, 2, 2, 91, 3
1670, 2, 3, 64, 2
1671, 3, 0, 48, 3
1672, 3, 1, 77, 1
1673, 3, 2, 43, 0
1674, 3, 3, 87, 2
